8
1 5
2 1
3 2
4 10
5 4
6 6
7 2
8 5
42
0 1 56
1 0 56
0 2 36
2 0 36
0 3 81
3 0 81
0 4 67
4 0 67
0 5 64
5 0 64
0 6 25
6 0 25
0 7 29
7 0 29
0 8 27
8 0 27
1 2 87
1 3 88
1 4 26
1 5 34
1 6 43
1 7 94
1 8 8
2 3 93
2 4 10
2 5 61
2 6 68
2 7 23
2 8 88
3 4 90
3 5 26
3 6 83
3 7 18
4 5 21
4 6 95
4 7 89
4 8 79
5 6 32
5 7 87
5 8 58
6 7 75
6 8 48
